NAME: test1870
TYPE: TSP
DIMENSION: 11
EDGE_WEIGHT_TYPE: EUC_2D
NODE_COORD_SECTION
1 34.114794213800224 53.10402602600847
2 8.090634218121306 20.370106496672435
3 20.851383863894334 40.25568199858073
4 84.84580251346652 39.79957450938112
5 96.10349266747299 46.23639019326893
6 52.77167154116103 75.74670665329741
7 3.6603396688655976 93.17050450941089
8 88.20959278476836 23.149442184427183
9 61.93884525655895 38.91437319268001
10 46.304330072835384 10.57501449283439
11 17.99047583135436 81.54689554842885
EOF
